%mem=4gb
%nproc=1
#T nmr(spinspin,readatoms) NoSymmetry b3lyp/6-31g(2df,p)

dsgdb9nsd_119341

0 1
C 0.0895193339 1.5745896116 0.0685963395
C 0.1797973868 0.0661346085 -0.0660651093
O 0.4761961187 -0.4794833776 1.2247773545
C 0.6092535731 -1.8291000078 1.2354037923
C 1.3302096674 -2.7285528663 2.2116607535
C 0.0863241762 -3.5807053596 2.4501232295
C -0.3734520066 -3.0899397039 1.0534480177
O 0.5746255785 -3.7001651066 0.1398604912
C 1.5661422780 -2.8278524071 0.6691552852
H 1.0358787295 1.9862052445 0.4306521090
H -0.1380378386 2.0273900139 -0.9009805438
H -0.6979582570 1.8524892681 0.7747509854
H -0.7674142425 -0.3540635052 -0.4332457822
H 0.9681582358 -0.2258911409 -0.7735557833
H 2.1323581608 -2.4689853735 2.8903447382
H 0.1951811170 -4.6637127740 2.5612915688
H -0.5331892223 -3.1681094491 3.2503300431
H -1.4043477314 -3.1399720428 0.7096018482
H 2.5356371728 -2.7653458525 0.1938373426

atoms=H,C,N,F


